opti conp property full nosymm phon comp
vectors
       31.0439987183         0.0000000000         0.0000000000
        0.0000000000        18.0543003082         0.0000000000
        0.0000000000         0.0000000000         9.3993597031
