# 
# Keywords:
# 
opti conp property full nosymm phon dist comp

# Options:
# 
cell
   8.87287376   9.43250131   8.56576107  90.00000000  90.00000000  90.00000000
fractional  1   
Tc    core  0.343811886  0.204168229  0.907975305  1.9710000  1.0000  0.000000
Tc    core  0.839379302  0.000900193  0.912479027  1.9710000  1.0000  0.000000
Tc    core  0.671149380  0.743127278  0.405618723  1.9710000  1.0000  0.000000
Tc    core  0.364133920  0.722462818  0.573940454  1.9710000  1.0000  0.000000
Tc    core  0.366259962  0.220186661  0.244963540  1.9710000  1.0000  0.000000
Tc    core  0.656086632  0.233785455  0.414094905  1.9710000  1.0000  0.000000
Tc    core  0.839969268  0.505249209  0.575319324  1.9710000  1.0000  0.000000
Tc    core  0.341861669  0.712479599  0.904199315  1.9710000  1.0000  0.000000
Tc    core  0.147756022  0.977902038  0.407756728  1.9710000  1.0000  0.000000
Tc    core  0.836221109  0.000585229  0.241829093  1.9710000  1.0000  0.000000
Tc    core  0.842836526  0.504186408  0.904331959  1.9710000  1.0000  0.000000
Tc    core  0.362172429  0.222363806  0.571353671  1.9710000  1.0000  0.000000
Mn    core  0.143663825  0.482454434  0.405441699  4.0000000  1.0000  0.000000
Mn    core  0.642419998  0.725601052  0.075178466  4.0000000  1.0000  0.000000
Mn    core  0.652298110  0.734262476  0.746625398  4.0000000  1.0000  0.000000
Mn    core  0.856553100  0.988659740  0.579581642  4.0000000  1.0000  0.000000
Mn    core  0.654147823  0.234367916  0.072374612  4.0000000  1.0000  0.000000
Mn    core  0.142784916  0.976335282  0.073474321  4.0000000  1.0000  0.000000
Mn    core  0.141286652  0.981124565  0.742937169  4.0000000  1.0000  0.000000
Mn    core  0.645581335  0.229401546  0.743416260  4.0000000  1.0000  0.000000
Mn    core  0.864754092  0.486354883  0.237118832  4.0000000  1.0000  0.000000
Mn    core  0.147441681  0.484141812  0.073747468  4.0000000  1.0000  0.000000
Mn    core  0.361760215  0.721817142  0.238931013  4.0000000  1.0000  0.000000
Mn    core  0.144477820  0.483418936  0.739423013  4.0000000  1.0000  0.000000
Li    core  0.022814190  0.242749266  0.241820771  1.0000000  1.0000  0.000000
Li    core  0.498331366  0.983778087  0.079890541  1.0000000  1.0000  0.000000
Li    core  0.510594529  0.463463496  0.253723544  1.0000000  1.0000  0.000000
Li    core  0.497680399  0.451897867  0.909412493  1.0000000  1.0000  0.000000
Li    core  0.018048312  0.751935357  0.578174513  1.0000000  1.0000  0.000000
Li    core  0.988958263  0.755658337  0.229741220  1.0000000  1.0000  0.000000
Li    core  0.992191272  0.253159198  0.580430772  1.0000000  1.0000  0.000000
Li    core  0.998862956  0.256967570  0.906914223  1.0000000  1.0000  0.000000
Li    core  0.482871497  0.992424497  0.411883938  1.0000000  1.0000  0.000000
Li    core  0.492990889  0.983688038  0.723442314  1.0000000  1.0000  0.000000
Li    core  0.997337153  0.759327648  0.908764563  1.0000000  1.0000  0.000000
Li    core  0.516194381  0.463760388  0.589819666  1.0000000  1.0000  0.000000
O     core  0.058751210  0.071291047  0.240526197  0.5130000  1.0000  0.000000
O     core  0.462446040  0.317064965  0.072076644  0.5130000  1.0000  0.000000
O     core  0.590375393  0.115114806  0.236652249  0.5130000  1.0000  0.000000
O     core  0.957909241  0.391861312  0.069892633  0.5130000  1.0000  0.000000
O     core  0.310385685  0.085906084  0.083510538  0.5130000  1.0000  0.000000
O     core  0.206409785  0.365065527  0.239248071  0.5130000  1.0000  0.000000
O     core  0.829484578  0.134489235  0.073929927  0.5130000  1.0000  0.000000
O     core  0.713691456  0.358851098  0.227807116  0.5130000  1.0000  0.000000
O     core  0.055796558  0.584962989  0.239897115  0.5130000  1.0000  0.000000
O     core  0.449294500  0.812137655  0.066299253  0.5130000  1.0000  0.000000
O     core  0.553140949  0.632815768  0.243063085  0.5130000  1.0000  0.000000
O     core  0.952860969  0.889461752  0.069767027  0.5130000  1.0000  0.000000
O     core  0.313541841  0.592469652  0.087151324  0.5130000  1.0000  0.000000
O     core  0.204880699  0.846541787  0.226069736  0.5130000  1.0000  0.000000
O     core  0.811098602  0.617393198  0.090736042  0.5130000  1.0000  0.000000
O     core  0.697631542  0.856192675  0.219235270  0.5130000  1.0000  0.000000
O     core  0.051064202  0.079857978  0.576413782  0.5130000  1.0000  0.000000
O     core  0.460540538  0.331869121  0.405236429  0.5130000  1.0000  0.000000
O     core  0.559557257  0.121921119  0.581473005  0.5130000  1.0000  0.000000
O     core  0.954118081  0.381842581  0.402235774  0.5130000  1.0000  0.000000
O     core  0.308937839  0.099165067  0.407814286  0.5130000  1.0000  0.000000
O     core  0.202762105  0.365902214  0.571140886  0.5130000  1.0000  0.000000
O     core  0.817702317  0.112542450  0.424037008  0.5130000  1.0000  0.000000
O     core  0.706020044  0.355202460  0.593658169  0.5130000  1.0000  0.000000
O     core  0.062924659  0.583581476  0.570411957  0.5130000  1.0000  0.000000
O     core  0.447100514  0.821196477  0.402678614  0.5130000  1.0000  0.000000
O     core  0.596290905  0.625626251  0.574319417  0.5130000  1.0000  0.000000
O     core  0.919218129  0.868159989  0.416233065  0.5130000  1.0000  0.000000
O     core  0.300721667  0.602735101  0.395474986  0.5130000  1.0000  0.000000
O     core  0.204498050  0.856416549  0.591306941  0.5130000  1.0000  0.000000
O     core  0.807630498  0.602503832  0.389611614  0.5130000  1.0000  0.000000
O     core  0.695007123  0.871126096  0.599014820  0.5130000  1.0000  0.000000
O     core  0.079474035  0.095244895  0.909840448  0.5130000  1.0000  0.000000
O     core  0.455916915  0.320543962  0.752254343  0.5130000  1.0000  0.000000
O     core  0.583805671  0.109673394  0.909995374  0.5130000  1.0000  0.000000
O     core  0.956687556  0.394414561  0.745772268  0.5130000  1.0000  0.000000
O     core  0.305760650  0.091771278  0.731899888  0.5130000  1.0000  0.000000
O     core  0.208615805  0.367251405  0.909516963  0.5130000  1.0000  0.000000
O     core  0.814698702  0.121622041  0.730111199  0.5130000  1.0000  0.000000
O     core  0.711008889  0.345864121  0.904403334  0.5130000  1.0000  0.000000
O     core  0.084211615  0.598378297  0.907631055  0.5130000  1.0000  0.000000
O     core  0.459238236  0.809618746  0.747356573  0.5130000  1.0000  0.000000
O     core  0.586568331  0.611138483  0.906566944  0.5130000  1.0000  0.000000
O     core  0.949882238  0.890427135  0.745032921  0.5130000  1.0000  0.000000
O     core  0.318722023  0.582639567  0.733208978  0.5130000  1.0000  0.000000
O     core  0.201292490  0.863525995  0.905070047  0.5130000  1.0000  0.000000
O     core  0.830654519  0.637257895  0.742596955  0.5130000  1.0000  0.000000
O     core  0.705902100  0.844040901  0.916684874  0.5130000  1.0000  0.000000
Tc    shel  0.343401788  0.204837104  0.908597122  1.0289999  1.0000  0.000000
Tc    shel  0.838504077  0.000707944  0.911445463  1.0289999  1.0000  0.000000
Tc    shel  0.671735465  0.745946420  0.406336651  1.0289999  1.0000  0.000000
Tc    shel  0.363120951  0.720331539  0.573567135  1.0289999  1.0000  0.000000
Tc    shel  0.364575697  0.219915455  0.243397267  1.0289999  1.0000  0.000000
Tc    shel  0.657842260  0.235913919  0.413250154  1.0289999  1.0000  0.000000
Tc    shel  0.839947488  0.504749016  0.575343308  1.0289999  1.0000  0.000000
Tc    shel  0.340877246  0.711620882  0.904353799  1.0289999  1.0000  0.000000
Tc    shel  0.147892403  0.974342577  0.408274645  1.0289999  1.0000  0.000000
Tc    shel  0.835934422  0.000752519  0.241417347  1.0289999  1.0000  0.000000
Tc    shel  0.842180729  0.503937078  0.905527706  1.0289999  1.0000  0.000000
Tc    shel  0.359417450  0.223701832  0.572372812  1.0289999  1.0000  0.000000
O     shel  0.065010434  0.058185894  0.237352695 -2.5129999  1.0000  0.000000
O     shel  0.470594518  0.299498822  0.075124888 -2.5129999  1.0000  0.000000
O     shel  0.593632111  0.132840448  0.231475352 -2.5129999  1.0000  0.000000
O     shel  0.962728138  0.412696479  0.077369706 -2.5129999  1.0000  0.000000
O     shel  0.299836946  0.090514110  0.078899898 -2.5129999  1.0000  0.000000
O     shel  0.202288137  0.376152193  0.239161345 -2.5129999  1.0000  0.000000
O     shel  0.808369940  0.124963797  0.071992865 -2.5129999  1.0000  0.000000
O     shel  0.722914430  0.357288001  0.222155688 -2.5129999  1.0000  0.000000
O     shel  0.054167431  0.563717522  0.239518688 -2.5129999  1.0000  0.000000
O     shel  0.452758031  0.795186062  0.073685097 -2.5129999  1.0000  0.000000
O     shel  0.548097634  0.647510257  0.232595622 -2.5129999  1.0000  0.000000
O     shel  0.962796287  0.903962441  0.067781047 -2.5129999  1.0000  0.000000
O     shel  0.297187597  0.600866649  0.089235803 -2.5129999  1.0000  0.000000
O     shel  0.212866718  0.849816230  0.221893257 -2.5129999  1.0000  0.000000
O     shel  0.799035695  0.606572251  0.092717153 -2.5129999  1.0000  0.000000
O     shel  0.702701285  0.846042288  0.217293725 -2.5129999  1.0000  0.000000
O     shel  0.048566404  0.062294277  0.581667578 -2.5129999  1.0000  0.000000
O     shel  0.462188101  0.315458392  0.402971449 -2.5129999  1.0000  0.000000
O     shel  0.559706388  0.139783805  0.587811701 -2.5129999  1.0000  0.000000
O     shel  0.958801773  0.400050108  0.393389419 -2.5129999  1.0000  0.000000
O     shel  0.307432078  0.105622738  0.407341218 -2.5129999  1.0000  0.000000
O     shel  0.201197500  0.377243495  0.570361919 -2.5129999  1.0000  0.000000
O     shel  0.807722731  0.100273814  0.427764307 -2.5129999  1.0000  0.000000
O     shel  0.706073612  0.348804961  0.597282445 -2.5129999  1.0000  0.000000
O     shel  0.069035873  0.568386606  0.569475053 -2.5129999  1.0000  0.000000
O     shel  0.441083760  0.808236386  0.399969680 -2.5129999  1.0000  0.000000
O     shel  0.599615821  0.639398795  0.581920618 -2.5129999  1.0000  0.000000
O     shel  0.916451951  0.883768176  0.424415999 -2.5129999  1.0000  0.000000
O     shel  0.290283167  0.607999926  0.390021072 -2.5129999  1.0000  0.000000
O     shel  0.202668720  0.864718206  0.595628735 -2.5129999  1.0000  0.000000
O     shel  0.804212874  0.592420355  0.387040720 -2.5129999  1.0000  0.000000
O     shel  0.709395492  0.864775086  0.603351986 -2.5129999  1.0000  0.000000
O     shel  0.084577639  0.078048248  0.908432436 -2.5129999  1.0000  0.000000
O     shel  0.463436561  0.303908323  0.750878546 -2.5129999  1.0000  0.000000
O     shel  0.590046412  0.129686031  0.908760409 -2.5129999  1.0000  0.000000
O     shel  0.966409064  0.410663174  0.747452031 -2.5129999  1.0000  0.000000
O     shel  0.294120267  0.095559290  0.736962355 -2.5129999  1.0000  0.000000
O     shel  0.204697555  0.376489328  0.911642801 -2.5129999  1.0000  0.000000
O     shel  0.799574311  0.111334918  0.727893764 -2.5129999  1.0000  0.000000
O     shel  0.707531672  0.335764386  0.905859451 -2.5129999  1.0000  0.000000
O     shel  0.089518516  0.580889030  0.908409061 -2.5129999  1.0000  0.000000
O     shel  0.465752727  0.794966079  0.743131730 -2.5129999  1.0000  0.000000
O     shel  0.592797868  0.628420214  0.909153968 -2.5129999  1.0000  0.000000
O     shel  0.954826097  0.910618696  0.738828006 -2.5129999  1.0000  0.000000
O     shel  0.301191782  0.589660037  0.735528058 -2.5129999  1.0000  0.000000
O     shel  0.198247353  0.873403336  0.904917877 -2.5129999  1.0000  0.000000
O     shel  0.811184996  0.626406861  0.744250307 -2.5129999  1.0000  0.000000
O     shel  0.704717846  0.832493181  0.914974047 -2.5129999  1.0000  0.000000
species   6
Tc     core    1.971000                  
Tc     shel    1.029000                  
Mn     core    4.000000                  
O      core    0.513000                  
O      shel   -2.513000                  
Li     core    1.000000                  
buck     
Mn    core O     shel  3087.82600     0.264200  0.000000      0.00  2.00
buck     
Li    core O     shel  426.48     0.300000  0.000000      0.00 25.00
buck     
O     shel Tc    shel  1686.12500     0.296200  0.000000      0.00 2.
buck     
O     shel O     shel  22.4100000     0.693700  32.32000      0.00 25.00
lennard 16  6     
O     shel O     core  100.00000      0.0000000      0.800 25.000
lennard 12  6
O     shel Tc    shel    0.00000      6.0000000      0.000 25.000
polynomial     
 1
Mn    core O     shel    -1.000000     0.000000     0.000 &
 0.000  2.000
polynomial     
 5
Mn    core O     shel   -91.561008   313.864964  -337.087774   161.755949 &
  -36.321307     3.120870  0.000  2.000  3.000

polynomial
1
Tc  shel O  shel -1.0 0.00 0.00 &
0.00 2.00
polynomial
5
Tc  shel O  shel -85.63039810664417 298.45249998619494 -319.8220476295288 &
152.56867656711893  -34.034459974422994 2.905795544978889 &
0.0 2.00 3.00

#harmonic k3     
#Li    core Mn    core 0.0000     -1000. 2.4000     0.00  0.000  2.400
#harmonic k3     
#Li    core Tc    core 0.0000     -1000. 2.4000     0.00  0.000  2.400

spring
O      20.530000     #1000.0000    
spring
Tc     148.00000     #1000.0000    
accuracy 10.000  4 50  8.000
cutd   4.4000
xtol opt   8.000000
gtol opt   8.000000
ftol opt   8.000000
maxcyc opt  500
dump every     10 gulp.res
output cif cryst.cif
