lattice_vector     4.913332    0.000000    0.000000
lattice_vector    -2.456666    4.255070    0.000000
lattice_vector    -0.000000    0.000000    5.419702
atom_frac       0.000000002670      0.465648897667      0.465648897667 Si  
atom_frac       0.534351103768      0.534351103768      0.534351103768 Si  
atom_frac       0.465648897667      0.000000002670      0.000000002670 Si  
atom_frac       0.135611325154      0.725222808116      0.725222808116 O   
atom_frac       0.589611479810      0.864388673303      0.864388673303 O   
atom_frac       0.274777193432      0.410388516080      0.410388516080 O   
atom_frac       0.410388516080      0.274777193432      0.274777193432 O   
atom_frac       0.864388673303      0.589611479810      0.589611479810 O   
atom_frac       0.725222808116      0.135611325154      0.135611325154 O   
