lattice_vector     0.00013612   -0.00005261   12.42566759
lattice_vector   -12.43014073    0.11272454    0.00020482
lattice_vector     0.11166379  -12.43052701    0.00011491
atom_frac    -0.00077638    0.97008234    1.02282591  Cs
atom_frac     0.49923191    1.03347765    0.97695913  Cs
atom_frac    -0.00079548    0.97883056    0.53156778  Cs
atom_frac     0.49921723    1.02470805    0.46821340  Cs
atom_frac    -0.00077894    0.47883702    1.03157579  Cs
atom_frac     0.49921132    0.52473224    0.96823292  Cs
atom_frac    -0.00077830    0.47009929    0.52283265  Cs
atom_frac     0.49921970    0.53344395    0.47698975  Cs
atom_frac     0.24921518    0.75177872    0.74990581  Pb
atom_frac     0.74920122    0.75179111    0.74989789  Pb
atom_frac     0.24923069    0.75176768    0.24991291  Pb
atom_frac     0.74921865    0.75177383    0.24989577  Pb
atom_frac     0.24922458    0.25177341    0.74988862  Pb
atom_frac     0.74921803    0.25179304    0.74989052  Pb
atom_frac     0.24923633    0.25176414    0.24989300  Pb
atom_frac     0.74923407    0.25177275    0.24988925  Pb
atom_frac    -0.00078966    0.71789169    0.70093677   I
atom_frac     0.49921052    0.78567680    0.79887242   I
atom_frac    -0.00077186    0.80076126    0.28376356   I
atom_frac     0.49922684    0.70276764    0.21605840   I
atom_frac    -0.00078055    0.30076671    0.78377619   I
atom_frac     0.49922390    0.20280380    0.71599987   I
atom_frac    -0.00076388    0.21788070    0.20090232   I
atom_frac     0.49923213    0.28566586    0.29888393   I
atom_frac     0.20774913    0.70135397    0.99878258   I
atom_frac     0.79067359    0.70134141    0.99876975   I
atom_frac     0.29069284    0.80218885    0.50103238   I
atom_frac     0.70777032    0.80222489    0.50102167   I
atom_frac     0.29072997    0.30216979    1.00101381   I
atom_frac     0.70774416    0.30222310    1.00102243   I
atom_frac     0.20773492    0.20133882    0.49876821   I
atom_frac     0.79071058    0.20137193    0.49876833   I
atom_frac     0.20772201    1.00289889    0.80031586   I
atom_frac     0.79069546    1.00291486    0.80033928   I
atom_frac     0.29074879    1.00063629    0.19948990   I
atom_frac     0.70774224    1.00065005    0.19946459   I
atom_frac     0.29069438    0.50065194    0.69948319   I
atom_frac     0.70773887    0.50066848    0.69947283   I
atom_frac     0.20773079    0.50288490    0.30031845   I
atom_frac     0.79072833    0.50289850    0.30031859   I
