lattice_vector    -0.00014374   12.42563348   -0.00034144
lattice_vector    12.43032504    0.00021855    0.11298060
lattice_vector    -0.11208347   -0.00041006  -12.43041655
atom_frac     0.00045081   -0.03128758    1.01934239  Cs
atom_frac     0.00046234   -0.02257396    0.52809483  Cs
atom_frac     0.50044876    0.03208703    0.97347438  Cs
atom_frac     0.50045361    0.02330670    0.46471810  Cs
atom_frac     0.00045712    0.47748061    1.02809107  Cs
atom_frac     0.00045824    0.46868577    0.51931979  Cs
atom_frac     0.50045736    0.52334621    0.96468878  Cs
atom_frac     0.50045380    0.53207055    0.47345188  Cs
atom_frac     0.25046558    0.25039141    0.74640944  Pb
atom_frac     0.25044385    0.25039654    0.24640801  Pb
atom_frac     0.75046365    0.25038114    0.74638759  Pb
atom_frac     0.75043325    0.25039278    0.24639429  Pb
atom_frac     0.25047492    0.75038687    0.74640342  Pb
atom_frac     0.25044377    0.75040333    0.24640196  Pb
atom_frac     0.75046915    0.75036703    0.74639094  Pb
atom_frac     0.75042328    0.75038141    0.24639710  Pb
atom_frac     0.29197736    0.30079257    0.99753556   I
atom_frac     0.20891575    0.20000998    0.49528030   I
atom_frac     0.70892439    0.30078323    0.99752436   I
atom_frac     0.79196183    0.19997362    0.49527333   I
atom_frac     0.20897296    0.69999513    0.99527206   I
atom_frac     0.29192157    0.80080575    0.49752446   I
atom_frac     0.79190807    0.69996243    0.99527118   I
atom_frac     0.70897556    0.80079614    0.49752072   I
atom_frac     0.00045839    0.29940477    0.78030251   I
atom_frac     0.00043703    0.21653845    0.19739517   I
atom_frac     0.50045705    0.20137823    0.71251147   I
atom_frac     0.50043991    0.28423908    0.29542510   I
atom_frac     0.00046309    0.71646277    0.69742849   I
atom_frac     0.00043579    0.79935426    0.28027496   I
atom_frac     0.50046605    0.78430915    0.79535373   I
atom_frac     0.50043473    0.70140518    0.21251016   I
atom_frac     0.20892107    0.00151030    0.79678036   I
atom_frac     0.29191773   -0.00072869    0.19598517   I
atom_frac     0.79197380    0.00150063    0.79679119   I
atom_frac     0.70896532   -0.00073848    0.19598350   I
atom_frac     0.29198096    0.49925932    0.69599625   I
atom_frac     0.20896715    0.50152783    0.29680723   I
atom_frac     0.70892915    0.49925032    0.69599558   I
atom_frac     0.79190907    0.50151483    0.29682926   I
