#=======================================================
# FHI-aims file: geometry.in.rotate
# Created using the Atomic Simulation Environment (ASE)
# Tue Sep 12 17:02:56 2023
#=======================================================
lattice_vector 12.4306690989080373 0.0000000000000000 0.0000000000000000 
lattice_vector -0.2242642091627095 12.4287203854741151 0.0000000000000000 
lattice_vector 0.0000012921352922 0.0000000452670466 12.4259493108009611 
atom -0.3123120349568774 0.4005061929217716 0.0110233081525977 Cs
atom 0.2722596906524362 -0.3869617235935126 6.2239823068569473 Cs
atom -0.5311049511246209 6.5061817002262528 0.0107642271094675 Cs
atom 0.2667777818779232 5.9360996847723850 6.2237336636112364 Cs
atom 5.7962952622675452 0.2918386591233626 0.0107739193499300 Cs
atom 6.5943250942941978 -0.2783146971855530 6.2237339121302249 Cs
atom 5.7909020953850616 6.6148870173346275 0.0110121247982180 Cs
atom 6.3754474365793881 5.8273726174051799 6.2239922476163958 Cs
atom 3.0318028402142643 3.1144277917304635 3.1173543174105078 Pb
atom 3.0313840674699830 3.1137117957825180 9.3303120735199272 Pb
atom 2.9195470495157827 9.3287811486713732 3.1173714652205571 Pb
atom 2.9192788288376357 9.3280228950742998 9.3303790493867105 Pb
atom 9.2470868151078474 3.1143165546831946 3.1174041454672445 Pb
atom 9.2468025341916995 3.1135596682451596 9.3303559371209932 Pb
atom 9.1349899963187635 9.3286019265233602 3.1173569268598631 Pb
atom 9.1345652751191242 9.3279193638333595 9.3303442567286421 Pb
atom 3.6327613906694278 3.5350380499547680 0.0108472324508637 I
atom 2.4303250885486771 2.6929548560240444 6.2238176630285791 I
atom 2.5092303842335237 8.7197093334077902 0.0109426637415706 I
atom 3.3296874911420367 9.9369549888875408 6.2239207984078577 I
atom 8.8366522596654526 2.5053093687654995 0.0109425394820775 I
atom 9.6571339104180147 3.7225795088243969 6.2239173191420525 I
atom 9.7359726337613655 9.7493308790273066 0.0108386585458392 I
atom 8.5336107509789958 8.9072016988311482 6.2238066039336921 I
atom 2.4611304329318324 -0.0068897273793758 2.6020454776308539 I
atom 2.4608227412125792 -0.0073834940520221 9.8457097588371525 I
atom 3.6023174452776563 6.2354040181789090 3.6327707659111934 I
atom 3.6020955889044322 6.2348948323834241 8.8150361625059457 I
atom 9.9297745161593340 0.0209617958872391 3.6327517542087477 I
atom 9.9295209971399014 0.0204644173760352 8.8149941627972748 I
atom 8.5643317372504004 6.2073958930351756 2.6019922945678040 I
atom 8.5640049683039923 6.2069053578300135 9.8457071493877955 I
atom -0.0733011991868495 3.7409914020088495 2.6019604841375683 I
atom -0.0735700261393344 3.7405758119881551 9.8458244503492907 I
atom -0.1907435891016058 8.7017333154470737 3.6328492979108380 I
atom -0.1909974794532515 8.7012634044073973 8.8149474412278668 I
atom 6.1367122137365886 2.4874027030647783 3.6329165222966093 I
atom 6.1364609523960594 2.4869042059678530 8.8149155065381386 I
atom 6.0299017208046788 9.9553390417382683 2.6019473126312991 I
atom 6.0296574271236123 9.9549691894085495 9.8457992256721898 I
