lattice_vector    12.43014073   -0.11272454   -0.00020482
lattice_vector    -0.11166379   12.43052701   -0.00011491
lattice_vector     0.00013612   -0.00005261   12.42566759
atom_frac     0.02991766   -0.02282591   -0.00077638  Cs
atom_frac    -0.03347765    0.02304087    0.49923191  Cs
atom_frac     0.02116944    0.46843222   -0.00079548  Cs
atom_frac    -0.02470805    0.53178660    0.49921723  Cs
atom_frac     0.52116298   -0.03157579   -0.00077894  Cs
atom_frac     0.47526776    0.03176708    0.49921132  Cs
atom_frac     0.52990071    0.47716735   -0.00077830  Cs
atom_frac     0.46655605    0.52301025    0.49921970  Cs
atom_frac     0.24822128    0.25009419    0.24921518  Pb
atom_frac     0.24820889    0.25010211    0.74920122  Pb
atom_frac     0.24823232    0.75008709    0.24923069  Pb
atom_frac     0.24822617    0.75010423    0.74921865  Pb
atom_frac     0.74822659    0.25011138    0.24922458  Pb
atom_frac     0.74820696    0.25010948    0.74921803  Pb
atom_frac     0.74823586    0.75010700    0.24923633  Pb
atom_frac     0.74822725    0.75011075    0.74923407  Pb
atom_frac     0.28210831    0.29906323   -0.00078966   I
atom_frac     0.21432320    0.20112758    0.49921052   I
atom_frac     0.19923874    0.71623644   -0.00077186   I
atom_frac     0.29723236    0.78394160    0.49922684   I
atom_frac     0.69923329    0.21622381   -0.00078055   I
atom_frac     0.79719620    0.28400013    0.49922390   I
atom_frac     0.78211930    0.79909768   -0.00076388   I
atom_frac     0.71433414    0.70111607    0.49923213   I
atom_frac     0.29864603    0.00121742    0.20774913   I
atom_frac     0.29865859    0.00123025    0.79067359   I
atom_frac     0.19781115    0.49896762    0.29069284   I
atom_frac     0.19777511    0.49897833    0.70777032   I
atom_frac     0.69783021   -0.00101381    0.29072997   I
atom_frac     0.69777690   -0.00102243    0.70774416   I
atom_frac     0.79866118    0.50123179    0.20773492   I
atom_frac     0.79862807    0.50123167    0.79071058   I
atom_frac    -0.00289889    0.19968414    0.20772201   I
atom_frac    -0.00291486    0.19966072    0.79069546   I
atom_frac    -0.00063629    0.80051010    0.29074879   I
atom_frac    -0.00065005    0.80053541    0.70774224   I
atom_frac     0.49934806    0.30051681    0.29069438   I
atom_frac     0.49933152    0.30052717    0.70773887   I
atom_frac     0.49711510    0.69968155    0.20773079   I
atom_frac     0.49710150    0.69968141    0.79072833   I
