# 
# This is the geometry file that corresponds to the current relaxation step.
# If you do not want this file to be written, set the "write_restart_geometry" flag to .false.
#  aims_uuid : 43FA0139-E25C-49BC-A390-1C9CF5CFF68F                                
# 
lattice_vector     12.43032504      0.00021855      0.11298060
lattice_vector     -0.00014374     12.42563348     -0.00034144
lattice_vector      0.11208347      0.00041006     12.43041655
atom_frac      -0.03128758      0.00045081     -0.01934239 Cs
atom_frac      -0.02257396      0.00046234      0.47190517 Cs
atom_frac       0.03208703      0.50044876      0.02652562 Cs
atom_frac       0.02330670      0.50045361      0.53528190 Cs
atom_frac       0.47748061      0.00045712     -0.02809107 Cs
atom_frac       0.46868577      0.00045824      0.48068021 Cs
atom_frac       0.52334621      0.50045736      0.03531122 Cs
atom_frac       0.53207055      0.50045380      0.52654812 Cs
atom_frac       0.25039141      0.25046558      0.25359056 Pb
atom_frac       0.25039654      0.25044385      0.75359199 Pb
atom_frac       0.25038114      0.75046365      0.25361241 Pb
atom_frac       0.25039278      0.75043325      0.75360571 Pb
atom_frac       0.75038687      0.25047492      0.25359658 Pb
atom_frac       0.75040333      0.25044377      0.75359804 Pb
atom_frac       0.75036703      0.75046915      0.25360906 Pb
atom_frac       0.75038141      0.75042328      0.75360290 Pb
atom_frac       0.30079257      0.29197736      0.00246444 I
atom_frac       0.20000998      0.20891575      0.50471970 I
atom_frac       0.30078323      0.70892439      0.00247564 I
atom_frac       0.19997362      0.79196183      0.50472667 I
atom_frac       0.69999513      0.20897296      0.00472794 I
atom_frac       0.80080575      0.29192157      0.50247554 I
atom_frac       0.69996243      0.79190807      0.00472882 I
atom_frac       0.80079614      0.70897556      0.50247928 I
atom_frac       0.29940477      0.00045839      0.21969749 I
atom_frac       0.21653845      0.00043703      0.80260483 I
atom_frac       0.20137823      0.50045705      0.28748853 I
atom_frac       0.28423908      0.50043991      0.70457490 I
atom_frac       0.71646277      0.00046309      0.30257151 I
atom_frac       0.79935426      0.00043579      0.71972504 I
atom_frac       0.78430915      0.50046605      0.20464627 I
atom_frac       0.70140518      0.50043473      0.78748984 I
atom_frac       0.00151030      0.20892107      0.20321964 I
atom_frac      -0.00072869      0.29191773      0.80401483 I
atom_frac       0.00150063      0.79197380      0.20320881 I
atom_frac      -0.00073848      0.70896532      0.80401650 I
atom_frac       0.49925932      0.29198096      0.30400375 I
atom_frac       0.50152783      0.20896715      0.70319277 I
atom_frac       0.49925032      0.70892915      0.30400442 I
atom_frac       0.50151483      0.79190907      0.70317074 I
# 
# What follows is the current estimated Hessian matrix constructed by the BFGS algorithm.
# This is NOT the true Hessian matrix of the system.
# If you do not want this information here, switch it off using the "hessian_to_restart_geometry" keyword.
# 
