lattice_vector     4.21120000    0.00000000    0.00000000
lattice_vector     0.00000000    4.21120000    0.00000000
lattice_vector     0.00000000    0.00000000    5.31200000
atom    0.00000000    0.00000000    0.00000000  Mg
atom    2.10560000    2.10560000    0.00000000  Mg
atom    2.10560000    0.00000000    2.65600000  Mg
atom    0.00000000    2.10560000    2.65600000  Mg
atom    2.10560000    0.00000000    0.00000000   O
atom    0.00000000    2.10560000    0.00000000   O
atom    0.00000000    0.00000000    2.65600000   O
atom    2.10560000    2.10560000    2.65600000   O
