lattice_vector     4.21120000    0.00000000    0.00000000
lattice_vector     0.00000000    4.21120000    0.00000000
lattice_vector     0.00000000    0.00000000    5.31200000
atom_frac    0.00000000    0.00000000    0.00000000  Mg
atom_frac    0.50000000    0.50000000    0.00000000  Mg
atom_frac    0.50000000    0.00000000    0.50000000  Mg
atom_frac    0.00000000    0.50000000    0.50000000  Mg
atom_frac    0.50000000    0.00000000    0.00000000   O
atom_frac    0.00000000    0.50000000    0.00000000   O
atom_frac    0.00000000    0.00000000    0.50000000   O
atom_frac    0.50000000    0.50000000    0.50000000   O
