opti conp comp prop
vectors
          4.21120000    0.00000000    0.00000000
          0.00000000    4.21120000    0.00000000
          0.00000000    0.00000000    5.31200000
cartesian
  Mg  core    0.00000000    0.00000000    0.00000000
  Mg  core    2.10560000    2.10560000    0.00000000
  Mg  core    2.10560000    0.00000000    2.65600000
  Mg  core    0.00000000    2.10560000    2.65600000
   O  core    2.10560000    0.00000000    0.00000000
   O  core    0.00000000    2.10560000    0.00000000
   O  core    0.00000000    0.00000000    2.65600000
   O  core    2.10560000    2.10560000    2.65600000
species
Mg core  2.12300
Mg shel -0.12300
O  core  0.89502
O  shel -2.89502
buck
O  shel O shel 22764.0    0.149     6.97    0.0 12.0
Mg shel O shel   941.5    0.29453   0.0     0.0 12.0
spring
O   74.92
Mg  142.0
xtol opt   5.000000
gtol opt   5.000000
ftol opt   5.000000
