lattice_vector     0.00013612   -0.00005261   12.42566759
lattice_vector    12.43014073   -0.11272454   -0.00020482
lattice_vector    -0.11166379   12.43052701   -0.00011491
atom_frac    -0.00077638    0.02991766   -0.02282591  Cs
atom_frac     0.49923191   -0.03347765    0.02304087  Cs
atom_frac    -0.00079548    0.02116944    0.46843222  Cs
atom_frac     0.49921723   -0.02470805    0.53178660  Cs
atom_frac    -0.00077894    0.52116298   -0.03157579  Cs
atom_frac     0.49921132    0.47526776    0.03176708  Cs
atom_frac    -0.00077830    0.52990071    0.47716735  Cs
atom_frac     0.49921970    0.46655605    0.52301025  Cs
atom_frac     0.24921518    0.24822128    0.25009419  Pb
atom_frac     0.74920122    0.24820889    0.25010211  Pb
atom_frac     0.24923069    0.24823232    0.75008709  Pb
atom_frac     0.74921865    0.24822617    0.75010423  Pb
atom_frac     0.24922458    0.74822659    0.25011138  Pb
atom_frac     0.74921803    0.74820696    0.25010948  Pb
atom_frac     0.24923633    0.74823586    0.75010700  Pb
atom_frac     0.74923407    0.74822725    0.75011075  Pb
atom_frac    -0.00078966    0.28210831    0.29906323   I
atom_frac     0.49921052    0.21432320    0.20112758   I
atom_frac    -0.00077186    0.19923874    0.71623644   I
atom_frac     0.49922684    0.29723236    0.78394160   I
atom_frac    -0.00078055    0.69923329    0.21622381   I
atom_frac     0.49922390    0.79719620    0.28400013   I
atom_frac    -0.00076388    0.78211930    0.79909768   I
atom_frac     0.49923213    0.71433414    0.70111607   I
atom_frac     0.20774913    0.29864603    0.00121742   I
atom_frac     0.79067359    0.29865859    0.00123025   I
atom_frac     0.29069284    0.19781115    0.49896762   I
atom_frac     0.70777032    0.19777511    0.49897833   I
atom_frac     0.29072997    0.69783021   -0.00101381   I
atom_frac     0.70774416    0.69777690   -0.00102243   I
atom_frac     0.20773492    0.79866118    0.50123179   I
atom_frac     0.79071058    0.79862807    0.50123167   I
atom_frac     0.20772201   -0.00289889    0.19968414   I
atom_frac     0.79069546   -0.00291486    0.19966072   I
atom_frac     0.29074879   -0.00063629    0.80051010   I
atom_frac     0.70774224   -0.00065005    0.80053541   I
atom_frac     0.29069438    0.49934806    0.30051681   I
atom_frac     0.70773887    0.49933152    0.30052717   I
atom_frac     0.20773079    0.49711510    0.69968155   I
atom_frac     0.79072833    0.49710150    0.69968141   I
