# Generated by KLMC converter
# Input Source: na_only_qubo_52.cif
opti conp property full nosymm phon comp
vectors
         31.043998720000          0.000000000000          0.000000000000
          0.000000000000         18.054300310000          0.000000000000
          0.000000000000          0.000000000000          9.399359700000
cartesian
Na            0.000000000000          0.000000000000          0.000000000000
Na            5.173999890147          0.000000000000          2.349799977721
Na            0.000000000000          3.009099941717          0.000000000000
Na            5.173999890147          3.009099941717          2.349799977721
Na            0.000000000000          0.000000000000          4.699699964630
Na            5.173999890147          0.000000000000          7.049500036345
Na            0.000000000000          3.009099941717          4.699699964630
Na            5.173999890147          3.009099941717          7.049500036345
Na            0.000000000000          6.018100043152          0.000000000000
Na            0.000000000000         12.036200086305          0.000000000000
Na            5.173999890147         12.036200086305          2.349799977721
Na            5.173999890147          6.018100043152          2.349799977721
Na            5.173999890147         15.045200007197          2.349799977721
Na            5.173999890147          9.027199984869          2.349799977721
Na            0.000000000000          6.018100043152          4.699699964630
Na            5.173999890147         12.036200086305          7.049500036345
Na            5.173999890147          6.018100043152          7.049500036345
Na            0.000000000000          9.027199984869          4.699699964630
Na            0.000000000000         15.045200007197          4.699699964630
Na            5.173999890147         15.045200007197          7.049500036345
Na            5.173999890147          9.027199984869          7.049500036345
Na           10.348000090733          0.000000000000          0.000000000000
Na           20.695999871027          0.000000000000          0.000000000000
Na           15.521999980880          0.000000000000          2.349799977721
Na           15.521999980880          3.009099941717          2.349799977721
Na           20.695999871027          0.000000000000          4.699699964630
Na           15.521999980880          0.000000000000          7.049500036345
Na           10.348000090733          3.009099941717          4.699699964630
Na           15.521999980880          3.009099941717          7.049500036345
Na           10.348000090733          6.018100043152          0.000000000000
Na           20.695999871027         12.036200086305          0.000000000000
Na           25.870000071613         12.036200086305          2.349799977721
Na           20.695999871027          9.027199984869          0.000000000000
Na           10.348000090733         15.045200007197          0.000000000000
Na           15.521999980880         15.045200007197          2.349799977721
Na           20.695999871027         12.036200086305          4.699699964630
Na           25.870000071613         12.036200086305          7.049500036345
Na           15.521999980880          6.018100043152          7.049500036345
Na           10.348000090733         15.045200007197          4.699699964630
Na           15.521999980880         15.045200007197          7.049500036345
Na           25.870000071613          9.027199984869          7.049500036345
Na           10.348000090733         12.036200086305          0.000000000000
Na           15.521999980880         12.036200086305          2.349799977721
Na           20.695999871027         15.045200007197          0.000000000000
Na           15.521999980880          9.027199984869          2.349799977721
Na           25.870000071613         15.045200007197          2.349799977721
Na           10.348000090733         12.036200086305          4.699699964630
Na           15.521999980880         12.036200086305          7.049500036345
Na           20.695999871027         15.045200007197          4.699699964630
Na           10.348000090733          9.027199984869          4.699699964630
Na           15.521999980880          9.027199984869          7.049500036345
Na           25.870000071613         15.045200007197          7.049500036345
Fe            2.918099868641          1.504500050718          4.576500019215
Fe           28.125900093118         16.549800078739          4.822799994851
Fe            2.255900021505         16.549800078739          6.926400006123
Fe            8.092100069228          1.504500050718          7.172699981760
Fe           28.125900093118          4.513599992434          4.822799994851
Fe            2.255900021505          4.513599992434          6.926400006123
Fe            2.918099868641          1.504500050718          9.276199983844
Fe           28.125900093118         16.549800078739          0.123100030221
Fe            2.255900021505         16.549800078739          2.226700041493
Fe            8.092100069228          1.504500050718          2.473000017130
Fe           28.125900093118          4.513599992434          0.123100030221
Fe            2.255900021505          4.513599992434          2.226700041493
Fe            2.918099868641          7.522599913327          4.576500019215
Fe           28.125900093118         10.531700035587          4.822799994851
Fe            2.255900021505         10.531700035587          6.926400006123
Fe            8.092100069228          7.522599913327          7.172699981760
Fe            2.918099868641         13.540699956480          4.576500019215
Fe            8.092100069228         13.540699956480          7.172699981760
Fe            2.918099868641          7.522599913327          9.276199983844
Fe           28.125900093118         10.531700035587          0.123100030221
Fe            2.255900021505         10.531700035587          2.226700041493
Fe            8.092100069228          7.522599913327          2.473000017130
Fe            2.918099868641         13.540699956480          9.276199983844
Fe            8.092100069228         13.540699956480          2.473000017130
Fe           13.266099959375          1.504500050718          4.576500019215
Fe           17.777900002385         16.549800078739          4.822799994851
Fe           22.951899892532         16.549800078739          6.926400006123
Fe           18.440099849521          1.504500050718          7.172699981760
Fe           17.777900002385          4.513599992434          4.822799994851
Fe           22.951899892532          4.513599992434          6.926400006123
Fe           13.266099959375          1.504500050718          9.276199983844
Fe           17.777900002385         16.549800078739          0.123100030221
Fe           22.951899892532         16.549800078739          2.226700041493
Fe           18.440099849521          1.504500050718          2.473000017130
Fe           17.777900002385          4.513599992434          0.123100030221
Fe           22.951899892532          4.513599992434          2.226700041493
Fe           13.266099959375          7.522599913327          4.576500019215
Fe           17.777900002385         10.531700035587          4.822799994851
Fe           22.951899892532         10.531700035587          6.926400006123
Fe           18.440099849521          7.522599913327          7.172699981760
Fe           13.266099959375         13.540699956480          4.576500019215
Fe           18.440099849521         13.540699956480          7.172699981760
Fe           13.266099959375          7.522599913327          9.276199983844
Fe           17.777900002385         10.531700035587          0.123100030221
Fe           22.951899892532         10.531700035587          2.226700041493
Fe           18.440099849521          7.522599913327          2.473000017130
Fe           13.266099959375         13.540699956480          9.276199983844
Fe           18.440099849521         13.540699956480          2.473000017130
Fe           23.614100050108          1.504500050718          4.576500019215
Fe            7.429899911652         16.549800078739          4.822799994851
Fe           12.603900112238         16.549800078739          6.926400006123
Fe           28.788099940255          1.504500050718          7.172699981760
Fe            7.429899911652          4.513599992434          4.822799994851
Fe           12.603900112238          4.513599992434          6.926400006123
Fe           23.614100050108          1.504500050718          9.276199983844
Fe            7.429899911652         16.549800078739          0.123100030221
Fe           12.603900112238         16.549800078739          2.226700041493
Fe           28.788099940255          1.504500050718          2.473000017130
Fe            7.429899911652          4.513599992434          0.123100030221
Fe           12.603900112238          4.513599992434          2.226700041493
Fe           23.614100050108          7.522599913327          4.576500019215
Fe            7.429899911652         10.531700035587          4.822799994851
Fe           12.603900112238         10.531700035587          6.926400006123
Fe           28.788099940255          7.522599913327          7.172699981760
Fe           23.614100050108         13.540699956480          4.576500019215
Fe           28.788099940255         13.540699956480          7.172699981760
Fe           23.614100050108          7.522599913327          9.276199983844
Fe            7.429899911652         10.531700035587          0.123100030221
Fe           12.603900112238         10.531700035587          2.226700041493
Fe           28.788099940255          7.522599913327          2.473000017130
Fe           23.614100050108         13.540699956480          9.276199983844
Fe           28.788099940255         13.540699956480          2.473000017130
P             0.978899856678          1.504500050718          1.965400003686
P            30.065100105082         16.549800078739          7.434000019567
P             4.195100033468         16.549800078739          4.315199981407
P             6.152900057265          1.504500050718          0.384399974035
P            30.065100105082          4.513599992434          7.434000019567
P             4.195100033468          4.513599992434          4.315199981407
P             0.978899856678          1.504500050718          6.665099968316
P            30.065100105082         16.549800078739          2.734299960944
P             4.195100033468         16.549800078739          9.014900040031
P             6.152900057265          1.504500050718          5.084100032658
P            30.065100105082          4.513599992434          2.734299960944
P             4.195100033468          4.513599992434          9.014900040031
P             0.978899856678          7.522599913327          1.965400003686
P            30.065100105082         10.531700035587          7.434000019567
P             4.195100033468         10.531700035587          4.315199981407
P             6.152900057265          7.522599913327          0.384399974035
P             0.978899856678         13.540699956480          1.965400003686
P             6.152900057265         13.540699956480          0.384399974035
P             0.978899856678          7.522599913327          6.665099968316
P            30.065100105082         10.531700035587          2.734299960944
P             4.195100033468         10.531700035587          9.014900040031
P             6.152900057265          7.522599913327          5.084100032658
P             0.978899856678         13.540699956480          6.665099968316
P             6.152900057265         13.540699956480          5.084100032658
P            11.326899947412          1.504500050718          1.965400003686
P            19.717100014348         16.549800078739          7.434000019567
P            24.891099904495         16.549800078739          4.315199981407
P            16.500900147998          1.504500050718          0.384399974035
P            19.717100014348          4.513599992434          7.434000019567
P            24.891099904495          4.513599992434          4.315199981407
P            11.326899947412          1.504500050718          6.665099968316
P            19.717100014348         16.549800078739          2.734299960944
P            24.891099904495         16.549800078739          9.014900040031
P            16.500900147998          1.504500050718          5.084100032658
P            19.717100014348          4.513599992434          2.734299960944
P            24.891099904495          4.513599992434          9.014900040031
P            11.326899947412          7.522599913327          1.965400003686
P            19.717100014348         10.531700035587          7.434000019567
P            24.891099904495         10.531700035587          4.315199981407
P            16.500900147998          7.522599913327          0.384399974035
P            11.326899947412         13.540699956480          1.965400003686
P            16.500900147998         13.540699956480          0.384399974035
P            11.326899947412          7.522599913327          6.665099968316
P            19.717100014348         10.531700035587          2.734299960944
P            24.891099904495         10.531700035587          9.014900040031
P            16.500900147998          7.522599913327          5.084100032658
P            11.326899947412         13.540699956480          6.665099968316
P            16.500900147998         13.540699956480          5.084100032658
P            21.674900038145          1.504500050718          1.965400003686
P             9.369099923615         16.549800078739          7.434000019567
P            14.543100124202         16.549800078739          4.315199981407
P            26.848899928291          1.504500050718          0.384399974035
P             9.369099923615          4.513599992434          7.434000019567
P            14.543100124202          4.513599992434          4.315199981407
P            21.674900038145          1.504500050718          6.665099968316
P             9.369099923615         16.549800078739          2.734299960944
P            14.543100124202         16.549800078739          9.014900040031
P            26.848899928291          1.504500050718          5.084100032658
P             9.369099923615          4.513599992434          2.734299960944
P            14.543100124202          4.513599992434          9.014900040031
P            21.674900038145          7.522599913327          1.965400003686
P             9.369099923615         10.531700035587          7.434000019567
P            14.543100124202         10.531700035587          4.315199981407
P            26.848899928291          7.522599913327          0.384399974035
P            21.674900038145         13.540699956480          1.965400003686
P            26.848899928291         13.540699956480          0.384399974035
P            21.674900038145          7.522599913327          6.665099968316
P             9.369099923615         10.531700035587          2.734299960944
P            14.543100124202         10.531700035587          9.014900040031
P            26.848899928291          7.522599913327          5.084100032658
P            21.674900038145         13.540699956480          6.665099968316
P            26.848899928291         13.540699956480          5.084100032658
O             1.006899991324          1.504500050718          3.474900044035
O            30.037099970436         16.549800078739          5.924399970031
O             4.167199860499         16.549800078739          5.824800030944
O             6.180899881470          1.504500050718          8.274299956939
O            30.037099970436          4.513599992434          5.924399970031
O             4.167199860499          4.513599992434          5.824800030944
O             1.006899991324          1.504500050718          8.174600008665
O            30.037099970436         16.549800078739          1.224700005401
O             4.167199860499         16.549800078739          1.125099972321
O             6.180899881470          1.504500050718          3.574599992309
O            30.037099970436          4.513599992434          1.224700005401
O             4.167199860499          4.513599992434          1.125099972321
O             1.006899991324          7.522599913327          3.474900044035
O            30.037099970436         10.531700035587          5.924399970031
O             4.167199860499         10.531700035587          5.824800030944
O             6.180899881470          7.522599913327          8.274299956939
O             1.006899991324         13.540699956480          3.474900044035
O             6.180899881470         13.540699956480          8.274299956939
O             1.006899991324          7.522599913327          8.174600008665
O            30.037099970436         10.531700035587          1.224700005401
O             4.167199860499         10.531700035587          1.125099972321
O             6.180899881470          7.522599913327          3.574599992309
O             1.006899991324         13.540699956480          8.174600008665
O             6.180899881470         13.540699956480          3.574599992309
O            11.354800120381          1.504500050718          3.474900044035
O            19.689099879703         16.549800078739          5.924399970031
O            24.863100080290         16.549800078739          5.824800030944
O            16.528800010528          1.504500050718          8.274299956939
O            19.689099879703          4.513599992434          5.924399970031
O            24.863100080290          4.513599992434          5.824800030944
O            11.354800120381          1.504500050718          8.174600008665
O            19.689099879703         16.549800078739          1.224700005401
O            24.863100080290         16.549800078739          1.125099972321
O            16.528800010528          1.504500050718          3.574599992309
O            19.689099879703          4.513599992434          1.224700005401
O            24.863100080290          4.513599992434          1.125099972321
O            11.354800120381          7.522599913327          3.474900044035
O            19.689099879703         10.531700035587          5.924399970031
O            24.863100080290         10.531700035587          5.824800030944
O            16.528800010528          7.522599913327          8.274299956939
O            11.354800120381         13.540699956480          3.474900044035
O            16.528800010528         13.540699956480          8.274299956939
O            11.354800120381          7.522599913327          8.174600008665
O            19.689099879703         10.531700035587          1.224700005401
O            24.863100080290         10.531700035587          1.125099972321
O            16.528800010528          7.522599913327          3.574599992309
O            11.354800120381         13.540699956480          8.174600008665
O            16.528800010528         13.540699956480          3.574599992309
O            21.702799900674          1.504500050718          3.474900044035
O             9.341100099410         16.549800078739          5.924399970031
O            14.515099989556         16.549800078739          5.824800030944
O            26.876800101261          1.504500050718          8.274299956939
O             9.341100099410          4.513599992434          5.924399970031
O            14.515099989556          4.513599992434          5.824800030944
O            21.702799900674          1.504500050718          8.174600008665
O             9.341100099410         16.549800078739          1.224700005401
O            14.515099989556         16.549800078739          1.125099972321
O            26.876800101261          1.504500050718          3.574599992309
O             9.341100099410          4.513599992434          1.224700005401
O            14.515099989556          4.513599992434          1.125099972321
O            21.702799900674          7.522599913327          3.474900044035
O             9.341100099410         10.531700035587          5.924399970031
O            14.515099989556         10.531700035587          5.824800030944
O            26.876800101261          7.522599913327          8.274299956939
O            21.702799900674         13.540699956480          3.474900044035
O            26.876800101261         13.540699956480          8.274299956939
O            21.702799900674          7.522599913327          8.174600008665
O             9.341100099410         10.531700035587          1.224700005401
O            14.515099989556         10.531700035587          1.125099972321
O            26.876800101261          7.522599913327          3.574599992309
O            21.702799900674         13.540699956480          8.174600008665
O            26.876800101261         13.540699956480          3.574599992309
O             4.706300008191          1.504500050718          0.980400025521
O            26.337699953569         16.549800078739          8.418999997732
O             0.467699881956         16.549800078739          3.330200003243
O             9.880299898337          1.504500050718          1.369499961387
O            26.337699953569          4.513599992434          8.418999997732
O             0.467699881956          4.513599992434          3.330200003243
O             4.706300008191          1.504500050718          5.679999980964
O            26.337699953569         16.549800078739          3.719300033102
O             0.467699881956         16.549800078739          8.029899967872
O             9.880299898337          1.504500050718          6.069200020011
O            26.337699953569          4.513599992434          3.719300033102
O             0.467699881956          4.513599992434          8.029899967872
O             4.706300008191          7.522599913327          0.980400025521
O            26.337699953569         10.531700035587          8.418999997732
O             0.467699881956         10.531700035587          3.330200003243
O             9.880299898337          7.522599913327          1.369499961387
O             4.706300008191         13.540699956480          0.980400025521
O             9.880299898337         13.540699956480          1.369499961387
O             4.706300008191          7.522599913327          5.679999980964
O            26.337699953569         10.531700035587          3.719300033102
O             0.467699881956         10.531700035587          8.029899967872
O             9.880299898337          7.522599913327          6.069200020011
O             4.706300008191         13.540699956480          5.679999980964
O             9.880299898337         13.540699956480          6.069200020011
O            15.054300098924          1.504500050718          0.980400025521
O            15.989699862836         16.549800078739          8.418999997732
O            21.163700063423         16.549800078739          3.330200003243
O            20.228299989071          1.504500050718          1.369499961387
O            15.989699862836          4.513599992434          8.418999997732
O            21.163700063423          4.513599992434          3.330200003243
O            15.054300098924          1.504500050718          5.679999980964
O            15.989699862836         16.549800078739          3.719300033102
O            21.163700063423         16.549800078739          8.029899967872
O            20.228299989071          1.504500050718          6.069200020011
O            15.989699862836          4.513599992434          3.719300033102
O            21.163700063423          4.513599992434          8.029899967872
O            15.054300098924          7.522599913327          0.980400025521
O            15.989699862836         10.531700035587          8.418999997732
O            21.163700063423         10.531700035587          3.330200003243
O            20.228299989071          7.522599913327          1.369499961387
O            15.054300098924         13.540699956480          0.980400025521
O            20.228299989071         13.540699956480          1.369499961387
O            15.054300098924          7.522599913327          5.679999980964
O            15.989699862836         10.531700035587          3.719300033102
O            21.163700063423         10.531700035587          8.029899967872
O            20.228299989071          7.522599913327          6.069200020011
O            15.054300098924         13.540699956480          5.679999980964
O            20.228299989071         13.540699956480          6.069200020011
O            25.402299879217          1.504500050718          0.980400025521
O             5.641700082543         16.549800078739          8.418999997732
O            10.815699972689         16.549800078739          3.330200003243
O            30.576300079804          1.504500050718          1.369499961387
O             5.641700082543          4.513599992434          8.418999997732
O            10.815699972689          4.513599992434          3.330200003243
O            25.402299879217          1.504500050718          5.679999980964
O             5.641700082543         16.549800078739          3.719300033102
O            10.815699972689         16.549800078739          8.029899967872
O            30.576300079804          1.504500050718          6.069200020011
O             5.641700082543          4.513599992434          3.719300033102
O            10.815699972689          4.513599992434          8.029899967872
O            25.402299879217          7.522599913327          0.980400025521
O             5.641700082543         10.531700035587          8.418999997732
O            10.815699972689         10.531700035587          3.330200003243
O            30.576300079804          7.522599913327          1.369499961387
O            25.402299879217         13.540699956480          0.980400025521
O            30.576300079804         13.540699956480          1.369499961387
O            25.402299879217          7.522599913327          5.679999980964
O             5.641700082543         10.531700035587          3.719300033102
O            10.815699972689         10.531700035587          8.029899967872
O            30.576300079804          7.522599913327          6.069200020011
O            25.402299879217         13.540699956480          5.679999980964
O            30.576300079804         13.540699956480          6.069200020011
O             1.700200026818          0.289499983299          1.336099994648
O            29.343799934942         17.764799965615          8.063200019417
O             3.473799863329         17.764799965615          3.685999981557
O             6.874199916964          0.289499983299          1.013699983073
O            29.343799934942          3.298500084735          8.063200019417
O             1.700200026818          2.719599958418          1.336099994648
O             6.874199916964          2.719599958418          1.013699983073
O             3.473799863329          3.298500084735          3.685999981557
O             1.700200026818          0.289499983299          6.035799959278
O            29.343799934942         17.764799965615          3.363599969981
O             3.473799863329         17.764799965615          8.385600030993
O             6.874199916964          0.289499983299          5.713400041696
O            29.343799934942          3.298500084735          3.363599969981
O             1.700200026818          2.719599958418          6.035799959278
O             6.874199916964          2.719599958418          5.713400041696
O             3.473799863329          3.298500084735          8.385600030993
O             1.700200026818          6.307600026451          1.336099994648
O            29.343799934942         11.746699922463          8.063200019417
O             3.473799863329         11.746699922463          3.685999981557
O             6.874199916964          6.307600026451          1.013699983073
O            29.343799934942          9.316599947344          8.063200019417
O             1.700200026818         14.755800044722          1.336099994648
O             6.874199916964         14.755800044722          1.013699983073
O             3.473799863329          9.316599947344          3.685999981557
O             1.700200026818          6.307600026451          6.035799959278
O            29.343799934942         11.746699922463          3.363599969981
O             3.473799863329         11.746699922463          8.385600030993
O             6.874199916964          6.307600026451          5.713400041696
O            29.343799934942          9.316599947344          3.363599969981
O             1.700200026818         14.755800044722          6.035799959278
O             6.874199916964         14.755800044722          5.713400041696
O             3.473799863329          9.316599947344          8.385600030993
O             1.700200026818         12.325700069604          1.336099994648
O            29.343799934942          5.728600059853          8.063200019417
O             3.473799863329          5.728600059853          3.685999981557
O             6.874199916964         12.325700069604          1.013699983073
O            29.343799934942         15.334699990496          8.063200019417
O             1.700200026818          8.737700001570          1.336099994648
O             6.874199916964          8.737700001570          1.013699983073
O             3.473799863329         15.334699990496          3.685999981557
O             1.700200026818         12.325700069604          6.035799959278
O            29.343799934942          5.728600059853          3.363599969981
O             3.473799863329          5.728600059853          8.385600030993
O             6.874199916964         12.325700069604          5.713400041696
O            29.343799934942         15.334699990496          3.363599969981