opti conp comp prop
vectors
          4.21120000    0.00000000    0.00000000
          0.00000000    4.21120000    0.00000000
          0.00000000    0.00000000    5.31200000
fractional
  Mg  core    0.00000000    0.00000000    0.00000000
  Mg  core    0.50000000    0.50000000    0.00000000
  Mg  core    0.50000000    0.00000000    0.50000000
  Mg  core    0.00000000    0.50000000    0.50000000
   O  core    0.50000000    0.00000000    0.00000000
   O  shel    0.50000000    0.00000000    0.00000000
   O  core    0.00000000    0.50000000    0.00000000
   O  shel    0.00000000    0.50000000    0.00000000
   O  core    0.00000000    0.00000000    0.50000000
   O  shel    0.00000000    0.00000000    0.50000000
   O  core    0.50000000    0.50000000    0.50000000
   O  shel    0.50000000    0.50000000    0.50000000
species
Mg core  2.00000
O  core  0.89502
O  shel -2.89502
buck
O  shel O shel 22764.0    0.149     6.97    0.0 12.0
Mg core O shel   941.5    0.29453   0.0     0.0 12.0
spring
O   74.92
xtol opt   5.000000
gtol opt   5.000000
ftol opt   5.000000
output cif 4.config
